% seed = 0

mint = 31;
% maxt = 87;

nActs = 27;
dur = [0,5,5,3,4,1,6,2,6,3,3,1,3,6,3,4,4,3,3,1,4,6,4,1,3,3,0];

nSkills = 3;
sreq = [| 0,0,0,
	| 0,5,2,
	| 0,0,3,
	| 5,2,2,
	| 4,1,0,
	| 5,5,4,
	| 3,5,2,
	| 2,4,4,
	| 3,2,0,
	| 3,2,0,
	| 3,0,2,
	| 4,1,0,
	| 1,4,4,
	| 2,2,2,
	| 5,0,4,
	| 1,5,0,
	| 4,5,4,
	| 3,2,3,
	| 5,3,3,
	| 0,4,6,
	| 1,6,2,
	| 0,2,0,
	| 0,0,4,
	| 2,0,1,
	| 0,1,3,
	| 0,0,2,
	| 0,0,0, |];

% SumOfsreq = 174;

nResources = 22;
mastery = [| true,false,true,
	| true,false,false,
	| true,true,false,
	| true,true,true,
	| true,true,true,
	| false,true,true,
	| false,true,false,
	| false,true,false,
	| true,false,true,
	| true,false,true,
	| true,false,false,
	| true,false,false,
	| false,true,true,
	| true,true,true,
	| false,true,true,
	| true,false,true,
	| true,true,true,
	| false,true,true,
	| false,true,false,
	| true,false,false,
	| false,true,true,
	| false,false,true, |];

nPrecs = 41;
pred = [1,1,1,2,2,3,3,4,4,4,5,5,6,6,7,7,8,8,9,9,10,11,12,13,14,15,16,16,17,17,18,19,19,20,21,22,23,23,24,25,26];
succ = [2,3,4,5,8,5,8,6,7,8,9,12,10,11,9,10,9,10,13,15,13,16,14,19,18,17,17,20,22,24,21,21,23,22,25,25,25,26,25,27,27];

nUnrels = 138;
unpred = [2,2,2,2,2,2,2,3,3,3,3,3,3,4,4,4,4,5,5,5,5,5,5,5,6,6,6,6,6,6,6,7,7,7,7,7,7,7,8,8,8,8,8,8,9,9,9,9,9,9,9,10,10,10,10,10,10,10,10,10,10,11,11,11,11,11,11,11,11,11,12,12,12,12,12,12,12,12,12,12,13,13,13,13,13,13,13,13,14,14,14,14,14,14,14,14,14,15,15,15,15,15,15,15,16,16,16,16,16,17,17,17,17,17,17,18,18,18,18,18,18,19,19,19,20,20,20,20,21,21,21,21,22,22,22,23,24,25];
unsucc = [3,4,6,7,11,16,20,4,6,7,11,16,20,5,12,14,18,6,7,8,10,11,16,20,7,8,9,12,14,15,18,8,11,12,14,16,18,20,11,12,14,16,18,20,10,11,12,14,16,18,20,11,12,14,15,16,17,18,20,22,24,12,13,14,15,18,19,21,23,26,13,15,16,17,19,20,22,23,24,26,14,15,16,17,18,20,22,24,15,16,17,19,20,22,23,24,26,16,18,19,20,21,23,26,18,19,21,23,26,18,19,20,21,23,26,19,20,22,23,24,26,20,22,24,21,23,24,26,22,23,24,26,23,24,26,24,26,26];

USEFUL_RES = [{},
	{1,3,4,5,6,7,8,9,10,13,14,15,16,17,18,19,21,22},
	{1,4,5,6,9,10,13,14,15,16,17,18,21,22},
	{1,2,3,4,5,6,7,8,9,10,11,12,13,14,15,16,17,18,19,20,21,22},
	{1,2,3,4,5,6,7,8,9,10,11,12,13,14,15,16,17,18,19,20,21},
	{1,2,3,4,5,6,7,8,9,10,11,12,13,14,15,16,17,18,19,20,21,22},
	{1,2,3,4,5,6,7,8,9,10,11,12,13,14,15,16,17,18,19,20,21,22},
	{1,2,3,4,5,6,7,8,9,10,11,12,13,14,15,16,17,18,19,20,21,22},
	{1,2,3,4,5,6,7,8,9,10,11,12,13,14,15,16,17,18,19,20,21},
	{1,2,3,4,5,6,7,8,9,10,11,12,13,14,15,16,17,18,19,20,21},
	{1,2,3,4,5,6,9,10,11,12,13,14,15,16,17,18,20,21,22},
	{1,2,3,4,5,6,7,8,9,10,11,12,13,14,15,16,17,18,19,20,21},
	{1,2,3,4,5,6,7,8,9,10,11,12,13,14,15,16,17,18,19,20,21,22},
	{1,2,3,4,5,6,7,8,9,10,11,12,13,14,15,16,17,18,19,20,21,22},
	{1,2,3,4,5,6,9,10,11,12,13,14,15,16,17,18,20,21,22},
	{1,2,3,4,5,6,7,8,9,10,11,12,13,14,15,16,17,18,19,20,21},
	{1,2,3,4,5,6,7,8,9,10,11,12,13,14,15,16,17,18,19,20,21,22},
	{1,2,3,4,5,6,7,8,9,10,11,12,13,14,15,16,17,18,19,20,21,22},
	{1,2,3,4,5,6,7,8,9,10,11,12,13,14,15,16,17,18,19,20,21,22},
	{1,3,4,5,6,7,8,9,10,13,14,15,16,17,18,19,21,22},
	{1,2,3,4,5,6,7,8,9,10,11,12,13,14,15,16,17,18,19,20,21,22},
	{3,4,5,6,7,8,13,14,15,17,18,19,21},
	{1,4,5,6,9,10,13,14,15,16,17,18,21,22},
	{1,2,3,4,5,6,9,10,11,12,13,14,15,16,17,18,20,21,22},
	{1,3,4,5,6,7,8,9,10,13,14,15,16,17,18,19,21,22},
	{1,4,5,6,9,10,13,14,15,16,17,18,21,22},
	{}];

POTENTIAL_ACT = [{2,3,4,5,6,7,8,9,10,11,12,13,14,15,16,17,18,19,20,21,23,24,25,26},
	{4,5,6,7,8,9,10,11,12,13,14,15,16,17,18,19,21,24},
	{2,4,5,6,7,8,9,10,11,12,13,14,15,16,17,18,19,20,21,22,24,25},
	{2,3,4,5,6,7,8,9,10,11,12,13,14,15,16,17,18,19,20,21,22,23,24,25,26},
	{2,3,4,5,6,7,8,9,10,11,12,13,14,15,16,17,18,19,20,21,22,23,24,25,26},
	{2,3,4,5,6,7,8,9,10,11,12,13,14,15,16,17,18,19,20,21,22,23,24,25,26},
	{2,4,5,6,7,8,9,10,12,13,14,16,17,18,19,20,21,22,25},
	{2,4,5,6,7,8,9,10,12,13,14,16,17,18,19,20,21,22,25},
	{2,3,4,5,6,7,8,9,10,11,12,13,14,15,16,17,18,19,20,21,23,24,25,26},
	{2,3,4,5,6,7,8,9,10,11,12,13,14,15,16,17,18,19,20,21,23,24,25,26},
	{4,5,6,7,8,9,10,11,12,13,14,15,16,17,18,19,21,24},
	{4,5,6,7,8,9,10,11,12,13,14,15,16,17,18,19,21,24},
	{2,3,4,5,6,7,8,9,10,11,12,13,14,15,16,17,18,19,20,21,22,23,24,25,26},
	{2,3,4,5,6,7,8,9,10,11,12,13,14,15,16,17,18,19,20,21,22,23,24,25,26},
	{2,3,4,5,6,7,8,9,10,11,12,13,14,15,16,17,18,19,20,21,22,23,24,25,26},
	{2,3,4,5,6,7,8,9,10,11,12,13,14,15,16,17,18,19,20,21,23,24,25,26},
	{2,3,4,5,6,7,8,9,10,11,12,13,14,15,16,17,18,19,20,21,22,23,24,25,26},
	{2,3,4,5,6,7,8,9,10,11,12,13,14,15,16,17,18,19,20,21,22,23,24,25,26},
	{2,4,5,6,7,8,9,10,12,13,14,16,17,18,19,20,21,22,25},
	{4,5,6,7,8,9,10,11,12,13,14,15,16,17,18,19,21,24},
	{2,3,4,5,6,7,8,9,10,11,12,13,14,15,16,17,18,19,20,21,22,23,24,25,26},
	{2,3,4,6,7,8,11,13,14,15,17,18,19,20,21,23,24,25,26}];
